SAT
99 35 91 97 -82 -71 86 -17 66 28 -98 83 59 88 42 27 100 6 -5 -81 62 -56 78 -53 20 55 -60 25 -80 68 65 7 73 63 -94 -29 87 -85 -23 64 79 74 30 51 13 -34 -76 -48 -1 41 92 -14 -31 46 -69 43 -84 36 -90 -9 4 -33 16 -49 32 89 72 52 -3 22 10 -12 57 -50 -8 -93 -67 -95 -75 -24 -39 -77 11 96 -58 -21 54 61 -2 15 -70 44 19 18 40 -38 37 26 47 -45 0
